30 108
2 3 8 11 18 24
1 4 12 18
1 7 9 18 28
2 11 21
8 9 10 11 13 14
7 10 15 17 19
3 6 10 13
1 5 17 20 11
3 5 16 21
5 6 7 16 13
5 1 4 8 22
2 21 28
5 7 10 21
5 18
6 18 24
9 10 19
6 8 20
1 2 3 14 15 19
6 18 20 16
8 17 19 30
4 9 12 13
11 23 25 30
22 26
1 15 28
22
23 27
26 30
3 12 24

20 22 27